\ENCODING=ISO-8859-1
\Problem name: ../EQLPSolver/HiGHS-1-2-1/smallTests/codbt021.mps

Minimize
 OBJ: x0 + x1 + x2 + x3 + x4 + x5 + x6 + x7 + x8
Subject To
 R0:   x0 + x1 + x2 + x3 + x6 >= 1
 R1:   x0 + x1 + x2 + x4 + x7 >= 1
 R2:   x0 + x1 + x2 + x5 + x8 >= 1
 R3:   x0 + x3 + x4 + x5 + x6 >= 1
 R4:   x1 + x3 + x4 + x5 + x7 >= 1
 R5:   x2 + x3 + x4 + x5 + x8 >= 1
 R6:   x0 + x3 + x6 + x7 + x8 >= 1
 R7:   x1 + x4 + x6 + x7 + x8 >= 1
 R8:   x2 + x5 + x6 + x7 + x8 >= 1
 c10:  4 x0 + 4 x1 + 4 x2 + 4 x3 + 4 x4 + 4 x5 + 4 x6 + 4 x7 + 4 x8 >= 8
 c11:  2 x0 + 3 x1 + 3 x2 + 3 x3 + 3 x4 + 3 x5 + 3 x6 + 3 x7 + 3 x8 >= 6
 c12:  3 x0 + 3 x1 + 3 x2 + 3 x3 + 2 x4 + 3 x5 + 3 x6 + 3 x7 + 3 x8 >= 6
 c13:  3 x0 + 3 x1 + 3 x2 + 3 x3 + 3 x4 + 2 x5 + 3 x6 + 3 x7 + 3 x8 >= 6
 c14:  3 x0 + 3 x1 + 3 x2 + 3 x3 + 3 x4 + 3 x5 + 2 x6 + 3 x7 + 3 x8 >= 6
 c15:  3 x0 + 3 x1 + 2 x2 + 3 x3 + 3 x4 + 3 x5 + 3 x6 + 3 x7 + 3 x8 >= 6
 c16:  3 x0 + 3 x1 + 3 x2 + 3 x3 + 3 x4 + 3 x5 + 3 x6 + 2 x7 + 3 x8 >= 6
 c17:  3 x0 + 2 x1 + 3 x2 + 3 x3 + 3 x4 + 3 x5 + 3 x6 + 3 x7 + 3 x8 >= 6
 c18:  3 x0 + 3 x1 + 3 x2 + 3 x3 + 3 x4 + 3 x5 + 3 x6 + 3 x7 + 2 x8 >= 6
 c19:  3 x0 + 3 x1 + 3 x2 + 2 x3 + 3 x4 + 3 x5 + 3 x6 + 3 x7 + 3 x8 >= 6
 c20:  3 x0 + 4 x1 + 4 x2 + 4 x3 + 4 x4 + 4 x5 + 4 x6 + 4 x7 + 4 x8 >= 8
 c21:  4 x0 + 4 x1 + 4 x2 + 4 x3 + 3 x4 + 4 x5 + 4 x6 + 4 x7 + 4 x8 >= 8
 c22:  4 x0 + 4 x1 + 4 x2 + 4 x3 + 4 x4 + 3 x5 + 4 x6 + 4 x7 + 4 x8 >= 8
 c23:  4 x0 + 4 x1 + 4 x2 + 4 x3 + 4 x4 + 4 x5 + 3 x6 + 4 x7 + 4 x8 >= 8
 c24:  4 x0 + 4 x1 + 3 x2 + 4 x3 + 4 x4 + 4 x5 + 4 x6 + 4 x7 + 4 x8 >= 8
 c25:  4 x0 + 4 x1 + 4 x2 + 4 x3 + 4 x4 + 4 x5 + 4 x6 + 3 x7 + 4 x8 >= 8
 c26:  4 x0 + 3 x1 + 4 x2 + 4 x3 + 4 x4 + 4 x5 + 4 x6 + 4 x7 + 4 x8 >= 8
 c27:  4 x0 + 4 x1 + 4 x2 + 4 x3 + 4 x4 + 4 x5 + 4 x6 + 4 x7 + 3 x8 >= 8
 c28:  4 x0 + 4 x1 + 4 x2 + 3 x3 + 4 x4 + 4 x5 + 4 x6 + 4 x7 + 4 x8 >= 8
 c29:  7 x0 + 6 x1 + 6 x2 + 7 x3 + 7 x4 + 7 x5 + 7 x6 + 7 x7 + 7 x8 >= 14
 c30:  7 x0 + 7 x1 + 7 x2 + 6 x3 + 7 x4 + 6 x5 + 7 x6 + 7 x7 + 7 x8 >= 14
 c31:  7 x0 + 7 x1 + 6 x2 + 7 x3 + 7 x4 + 7 x5 + 7 x6 + 7 x7 + 6 x8 >= 14
 c32:  7 x0 + 7 x1 + 7 x2 + 6 x3 + 6 x4 + 7 x5 + 7 x6 + 7 x7 + 7 x8 >= 14
 c33:  6 x0 + 7 x1 + 7 x2 + 6 x3 + 7 x4 + 7 x5 + 7 x6 + 7 x7 + 7 x8 >= 14
 c34:  7 x0 + 6 x1 + 7 x2 + 7 x3 + 7 x4 + 7 x5 + 7 x6 + 6 x7 + 7 x8 >= 14
 c35:  7 x0 + 7 x1 + 7 x2 + 7 x3 + 7 x4 + 6 x5 + 7 x6 + 7 x7 + 6 x8 >= 14
 c36:  6 x0 + 6 x1 + 7 x2 + 7 x3 + 7 x4 + 7 x5 + 7 x6 + 7 x7 + 7 x8 >= 14
 c37:  7 x0 + 7 x1 + 7 x2 + 6 x3 + 7 x4 + 7 x5 + 6 x6 + 7 x7 + 7 x8 >= 14
 c38:  7 x0 + 6 x1 + 7 x2 + 7 x3 + 6 x4 + 7 x5 + 7 x6 + 7 x7 + 7 x8 >= 14
 c39:  7 x0 + 7 x1 + 7 x2 + 7 x3 + 7 x4 + 7 x5 + 7 x6 + 6 x7 + 6 x8 >= 14
 c40:  7 x0 + 7 x1 + 7 x2 + 7 x3 + 6 x4 + 7 x5 + 7 x6 + 6 x7 + 7 x8 >= 14
 c41:  6 x0 + 7 x1 + 6 x2 + 7 x3 + 7 x4 + 7 x5 + 7 x6 + 7 x7 + 7 x8 >= 14
 c42:  7 x0 + 7 x1 + 6 x2 + 7 x3 + 7 x4 + 6 x5 + 7 x6 + 7 x7 + 7 x8 >= 14
 c43:  7 x0 + 7 x1 + 7 x2 + 7 x3 + 7 x4 + 7 x5 + 6 x6 + 7 x7 + 6 x8 >= 14
 c44:  6 x0 + 7 x1 + 7 x2 + 7 x3 + 7 x4 + 7 x5 + 6 x6 + 7 x7 + 7 x8 >= 14
 c45:  7 x0 + 7 x1 + 7 x2 + 7 x3 + 7 x4 + 7 x5 + 6 x6 + 6 x7 + 7 x8 >= 14
 c46:  7 x0 + 7 x1 + 7 x2 + 7 x3 + 6 x4 + 6 x5 + 7 x6 + 7 x7 + 7 x8 >= 14
 c47:  6 x0 + 6 x1 + 6 x2 + 7 x3 + 7 x4 + 7 x5 + 7 x6 + 7 x7 + 7 x8 >= 14
 c48:  7 x0 + 7 x1 + 7 x2 + 6 x3 + 6 x4 + 6 x5 + 7 x6 + 7 x7 + 7 x8 >= 14
 c49:  7 x0 + 7 x1 + 6 x2 + 7 x3 + 7 x4 + 6 x5 + 7 x6 + 7 x7 + 6 x8 >= 14
 c50:  6 x0 + 7 x1 + 7 x2 + 6 x3 + 7 x4 + 7 x5 + 6 x6 + 7 x7 + 7 x8 >= 14
 c51:  7 x0 + 6 x1 + 7 x2 + 7 x3 + 6 x4 + 7 x5 + 7 x6 + 6 x7 + 7 x8 >= 14
 c52:  7 x0 + 7 x1 + 7 x2 + 7 x3 + 7 x4 + 7 x5 + 6 x6 + 6 x7 + 6 x8 >= 14
 c53:  3 x0 + 3 x1 + 4 x2 + 4 x3 + 4 x4 + 4 x5 + 4 x6 + 4 x7 + 4 x8 >= 8
 c54:  3 x0 + 4 x1 + 3 x2 + 4 x3 + 4 x4 + 4 x5 + 4 x6 + 4 x7 + 4 x8 >= 8
 c55:  4 x0 + 4 x1 + 4 x2 + 3 x3 + 3 x4 + 4 x5 + 4 x6 + 4 x7 + 4 x8 >= 8
 c56:  4 x0 + 4 x1 + 4 x2 + 4 x3 + 4 x4 + 3 x5 + 4 x6 + 4 x7 + 3 x8 >= 8
 c57:  4 x0 + 4 x1 + 4 x2 + 4 x3 + 3 x4 + 3 x5 + 4 x6 + 4 x7 + 4 x8 >= 8
 c58:  4 x0 + 4 x1 + 3 x2 + 4 x3 + 4 x4 + 3 x5 + 4 x6 + 4 x7 + 4 x8 >= 8
 c59:  4 x0 + 4 x1 + 4 x2 + 3 x3 + 4 x4 + 3 x5 + 4 x6 + 4 x7 + 4 x8 >= 8
 c60:  4 x0 + 4 x1 + 4 x2 + 3 x3 + 4 x4 + 4 x5 + 3 x6 + 4 x7 + 4 x8 >= 8
 c61:  4 x0 + 4 x1 + 4 x2 + 4 x3 + 3 x4 + 4 x5 + 4 x6 + 3 x7 + 4 x8 >= 8
 c62:  4 x0 + 4 x1 + 3 x2 + 4 x3 + 4 x4 + 4 x5 + 4 x6 + 4 x7 + 3 x8 >= 8
 c63:  3 x0 + 4 x1 + 4 x2 + 4 x3 + 4 x4 + 4 x5 + 3 x6 + 4 x7 + 4 x8 >= 8
 c64:  4 x0 + 3 x1 + 4 x2 + 4 x3 + 3 x4 + 4 x5 + 4 x6 + 4 x7 + 4 x8 >= 8
 c65:  4 x0 + 3 x1 + 3 x2 + 4 x3 + 4 x4 + 4 x5 + 4 x6 + 4 x7 + 4 x8 >= 8
 c66:  3 x0 + 4 x1 + 4 x2 + 3 x3 + 4 x4 + 4 x5 + 4 x6 + 4 x7 + 4 x8 >= 8
 c67:  4 x0 + 3 x1 + 4 x2 + 4 x3 + 4 x4 + 4 x5 + 4 x6 + 3 x7 + 4 x8 >= 8
 c68:  4 x0 + 4 x1 + 4 x2 + 4 x3 + 4 x4 + 4 x5 + 3 x6 + 3 x7 + 4 x8 >= 8
 c69:  4 x0 + 4 x1 + 4 x2 + 4 x3 + 4 x4 + 4 x5 + 3 x6 + 4 x7 + 3 x8 >= 8
 c70:  4 x0 + 4 x1 + 4 x2 + 4 x3 + 4 x4 + 4 x5 + 4 x6 + 3 x7 + 3 x8 >= 8
 c71:  9 x0 + 10 x1 + 9 x2 + 9 x3 + 10 x4 + 9 x5 + 9 x6 + 10 x7 + 9 x8 >= 20
 c72:  9 x0 + 9 x1 + 10 x2 + 9 x3 + 9 x4 + 10 x5 + 9 x6 + 9 x7 + 10 x8 >= 20
 c73:  10 x0 + 9 x1 + 9 x2 + 10 x3 + 9 x4 + 9 x5 + 10 x6 + 9 x7 + 9 x8 >= 20
 c74:  9 x0 + 9 x1 + 9 x2 + 9 x3 + 9 x4 + 9 x5 + 10 x6 + 10 x7 + 10 x8 >= 20
 c75:  10 x0 + 10 x1 + 10 x2 + 9 x3 + 9 x4 + 9 x5 + 9 x6 + 9 x7 + 9 x8 >= 20
 c76:  9 x0 + 9 x1 + 9 x2 + 10 x3 + 10 x4 + 10 x5 + 9 x6 + 9 x7 + 9 x8 >= 20
 c77:  11 x0 + 11 x1 + 11 x2 + 12 x3 + 12 x4 + 12 x5 + 12 x6 + 12 x7 + 12 x8
       >= 24
 c78:  12 x0 + 12 x1 + 12 x2 + 11 x3 + 11 x4 + 11 x5 + 12 x6 + 12 x7 + 12 x8
       >= 24
 c79:  12 x0 + 12 x1 + 11 x2 + 12 x3 + 12 x4 + 11 x5 + 12 x6 + 12 x7 + 11 x8
       >= 24
 c80:  11 x0 + 12 x1 + 12 x2 + 11 x3 + 12 x4 + 12 x5 + 11 x6 + 12 x7 + 12 x8
       >= 24
 c81:  12 x0 + 11 x1 + 12 x2 + 12 x3 + 11 x4 + 12 x5 + 12 x6 + 11 x7 + 12 x8
       >= 24
 c82:  12 x0 + 12 x1 + 12 x2 + 12 x3 + 12 x4 + 12 x5 + 11 x6 + 11 x7 + 11 x8
       >= 24
 c83:  12 x0 + 13 x1 + 12 x2 + 12 x3 + 13 x4 + 12 x5 + 12 x6 + 13 x7 + 12 x8
       >= 26
 c84:  12 x0 + 12 x1 + 13 x2 + 12 x3 + 12 x4 + 13 x5 + 12 x6 + 12 x7 + 13 x8
       >= 26
 c85:  13 x0 + 12 x1 + 12 x2 + 13 x3 + 12 x4 + 12 x5 + 13 x6 + 12 x7 + 12 x8
       >= 26
 c86:  12 x0 + 12 x1 + 12 x2 + 12 x3 + 12 x4 + 12 x5 + 13 x6 + 13 x7 + 13 x8
       >= 26
 c87:  13 x0 + 13 x1 + 13 x2 + 12 x3 + 12 x4 + 12 x5 + 12 x6 + 12 x7 + 12 x8
       >= 26
 c88:  12 x0 + 12 x1 + 12 x2 + 13 x3 + 13 x4 + 13 x5 + 12 x6 + 12 x7 + 12 x8
       >= 26
 c89:  8 x0 + 7 x1 + 8 x2 + 8 x3 + 8 x4 + 8 x5 + 8 x6 + 8 x7 + 8 x8 >= 17
 c90:  8 x0 + 8 x1 + 7 x2 + 8 x3 + 8 x4 + 8 x5 + 8 x6 + 8 x7 + 8 x8 >= 17
 c91:  8 x0 + 8 x1 + 8 x2 + 7 x3 + 8 x4 + 8 x5 + 8 x6 + 8 x7 + 8 x8 >= 17
 c92:  8 x0 + 8 x1 + 8 x2 + 8 x3 + 8 x4 + 8 x5 + 8 x6 + 8 x7 + 7 x8 >= 17
 c93:  8 x0 + 8 x1 + 8 x2 + 8 x3 + 8 x4 + 7 x5 + 8 x6 + 8 x7 + 8 x8 >= 17
 c94:  8 x0 + 8 x1 + 8 x2 + 8 x3 + 8 x4 + 8 x5 + 8 x6 + 7 x7 + 8 x8 >= 17
 c95:  8 x0 + 8 x1 + 8 x2 + 8 x3 + 7 x4 + 8 x5 + 8 x6 + 8 x7 + 8 x8 >= 17
 c96:  7 x0 + 8 x1 + 8 x2 + 8 x3 + 8 x4 + 8 x5 + 8 x6 + 8 x7 + 8 x8 >= 17
 c97:  8 x0 + 8 x1 + 8 x2 + 8 x3 + 8 x4 + 8 x5 + 7 x6 + 8 x7 + 8 x8 >= 17
 c98:  8 x0 + 8 x1 + 8 x2 + 8 x3 + 8 x4 + 8 x5 + 8 x6 + 8 x7 + 8 x8 >= 17
 c99:  11 x0 + 10 x1 + 11 x2 + 11 x3 + 11 x4 + 11 x5 + 11 x6 + 11 x7 + 11 x8
       >= 23
 c100: 11 x0 + 11 x1 + 10 x2 + 11 x3 + 11 x4 + 11 x5 + 11 x6 + 11 x7 + 11 x8
       >= 23
 c101: 11 x0 + 11 x1 + 11 x2 + 10 x3 + 11 x4 + 11 x5 + 11 x6 + 11 x7 + 11 x8
       >= 23
 c102: 11 x0 + 11 x1 + 11 x2 + 11 x3 + 11 x4 + 11 x5 + 11 x6 + 11 x7 + 10 x8
       >= 23
 c103: 11 x0 + 11 x1 + 11 x2 + 11 x3 + 11 x4 + 10 x5 + 11 x6 + 11 x7 + 11 x8
       >= 23
 c104: 11 x0 + 11 x1 + 11 x2 + 11 x3 + 11 x4 + 11 x5 + 11 x6 + 10 x7 + 11 x8
       >= 23
 c105: 11 x0 + 11 x1 + 11 x2 + 11 x3 + 10 x4 + 11 x5 + 11 x6 + 11 x7 + 11 x8
       >= 23
 c106: 10 x0 + 11 x1 + 11 x2 + 11 x3 + 11 x4 + 11 x5 + 11 x6 + 11 x7 + 11 x8
       >= 23
 c107: 11 x0 + 11 x1 + 11 x2 + 11 x3 + 11 x4 + 11 x5 + 10 x6 + 11 x7 + 11 x8
       >= 23
 c108: 11 x0 + 12 x1 + 11 x2 + 11 x3 + 12 x4 + 11 x5 + 11 x6 + 12 x7 + 11 x8
       >= 24
 c109: 11 x0 + 11 x1 + 12 x2 + 11 x3 + 11 x4 + 12 x5 + 11 x6 + 11 x7 + 12 x8
       >= 24
 c110: 12 x0 + 11 x1 + 11 x2 + 12 x3 + 11 x4 + 11 x5 + 12 x6 + 11 x7 + 11 x8
       >= 24
 c111: 11 x0 + 11 x1 + 11 x2 + 11 x3 + 11 x4 + 11 x5 + 12 x6 + 12 x7 + 12 x8
       >= 24
 c112: 12 x0 + 12 x1 + 12 x2 + 11 x3 + 11 x4 + 11 x5 + 11 x6 + 11 x7 + 11 x8
       >= 24
 c113: 11 x0 + 11 x1 + 11 x2 + 12 x3 + 12 x4 + 12 x5 + 11 x6 + 11 x7 + 11 x8
       >= 24
 c114: 7 x0 + 7 x1 + 8 x2 + 8 x3 + 8 x4 + 8 x5 + 8 x6 + 8 x7 + 8 x8 >= 16
 c115: 7 x0 + 8 x1 + 7 x2 + 8 x3 + 8 x4 + 8 x5 + 8 x6 + 8 x7 + 8 x8 >= 16
 c116: 8 x0 + 8 x1 + 8 x2 + 7 x3 + 7 x4 + 8 x5 + 8 x6 + 8 x7 + 8 x8 >= 16
 c117: 8 x0 + 8 x1 + 8 x2 + 8 x3 + 8 x4 + 7 x5 + 8 x6 + 8 x7 + 7 x8 >= 16
 c118: 8 x0 + 8 x1 + 8 x2 + 8 x3 + 7 x4 + 7 x5 + 8 x6 + 8 x7 + 8 x8 >= 16
 c119: 8 x0 + 8 x1 + 7 x2 + 8 x3 + 8 x4 + 7 x5 + 8 x6 + 8 x7 + 8 x8 >= 16
 c120: 8 x0 + 8 x1 + 8 x2 + 7 x3 + 8 x4 + 7 x5 + 8 x6 + 8 x7 + 8 x8 >= 16
 c121: 8 x0 + 8 x1 + 8 x2 + 7 x3 + 8 x4 + 8 x5 + 7 x6 + 8 x7 + 8 x8 >= 16
 c122: 8 x0 + 8 x1 + 8 x2 + 8 x3 + 7 x4 + 8 x5 + 8 x6 + 7 x7 + 8 x8 >= 16
 c123: 8 x0 + 8 x1 + 7 x2 + 8 x3 + 8 x4 + 8 x5 + 8 x6 + 8 x7 + 7 x8 >= 16
 c124: 7 x0 + 8 x1 + 8 x2 + 8 x3 + 8 x4 + 8 x5 + 7 x6 + 8 x7 + 8 x8 >= 16
 c125: 8 x0 + 7 x1 + 8 x2 + 8 x3 + 7 x4 + 8 x5 + 8 x6 + 8 x7 + 8 x8 >= 16
 c126: 8 x0 + 7 x1 + 7 x2 + 8 x3 + 8 x4 + 8 x5 + 8 x6 + 8 x7 + 8 x8 >= 16
 c127: 7 x0 + 8 x1 + 8 x2 + 7 x3 + 8 x4 + 8 x5 + 8 x6 + 8 x7 + 8 x8 >= 16
 c128: 8 x0 + 7 x1 + 8 x2 + 8 x3 + 8 x4 + 8 x5 + 8 x6 + 7 x7 + 8 x8 >= 16
 c129: 8 x0 + 8 x1 + 8 x2 + 8 x3 + 8 x4 + 8 x5 + 7 x6 + 7 x7 + 8 x8 >= 16
 c130: 8 x0 + 8 x1 + 8 x2 + 8 x3 + 8 x4 + 8 x5 + 7 x6 + 8 x7 + 7 x8 >= 16
 c131: 8 x0 + 8 x1 + 8 x2 + 8 x3 + 8 x4 + 8 x5 + 8 x6 + 7 x7 + 7 x8 >= 16
 c132: 13 x0 + 14 x1 + 13 x2 + 13 x3 + 14 x4 + 13 x5 + 13 x6 + 14 x7 + 13 x8
       >= 28
 c133: 13 x0 + 13 x1 + 14 x2 + 13 x3 + 13 x4 + 14 x5 + 13 x6 + 13 x7 + 14 x8
       >= 28
 c134: 14 x0 + 13 x1 + 13 x2 + 14 x3 + 13 x4 + 13 x5 + 14 x6 + 13 x7 + 13 x8
       >= 28
 c135: 13 x0 + 13 x1 + 13 x2 + 13 x3 + 13 x4 + 13 x5 + 14 x6 + 14 x7 + 14 x8
       >= 28
 c136: 14 x0 + 14 x1 + 14 x2 + 13 x3 + 13 x4 + 13 x5 + 13 x6 + 13 x7 + 13 x8
       >= 28
 c137: 13 x0 + 13 x1 + 13 x2 + 14 x3 + 14 x4 + 14 x5 + 13 x6 + 13 x7 + 13 x8
       >= 28
 c138: 6 x0 + 5 x1 + 5 x2 + 6 x3 + 6 x4 + 6 x5 + 6 x6 + 6 x7 + 6 x8 >= 12
 c139: 6 x0 + 6 x1 + 6 x2 + 5 x3 + 6 x4 + 5 x5 + 6 x6 + 6 x7 + 6 x8 >= 12
 c140: 6 x0 + 6 x1 + 5 x2 + 6 x3 + 6 x4 + 6 x5 + 6 x6 + 6 x7 + 5 x8 >= 12
 c141: 6 x0 + 6 x1 + 6 x2 + 5 x3 + 5 x4 + 6 x5 + 6 x6 + 6 x7 + 6 x8 >= 12
 c142: 5 x0 + 6 x1 + 6 x2 + 5 x3 + 6 x4 + 6 x5 + 6 x6 + 6 x7 + 6 x8 >= 12
 c143: 6 x0 + 5 x1 + 6 x2 + 6 x3 + 6 x4 + 6 x5 + 6 x6 + 5 x7 + 6 x8 >= 12
 c144: 6 x0 + 6 x1 + 6 x2 + 6 x3 + 6 x4 + 5 x5 + 6 x6 + 6 x7 + 5 x8 >= 12
 c145: 5 x0 + 5 x1 + 6 x2 + 6 x3 + 6 x4 + 6 x5 + 6 x6 + 6 x7 + 6 x8 >= 12
 c146: 6 x0 + 6 x1 + 6 x2 + 5 x3 + 6 x4 + 6 x5 + 5 x6 + 6 x7 + 6 x8 >= 12
 c147: 6 x0 + 5 x1 + 6 x2 + 6 x3 + 5 x4 + 6 x5 + 6 x6 + 6 x7 + 6 x8 >= 12
 c148: 6 x0 + 6 x1 + 6 x2 + 6 x3 + 6 x4 + 6 x5 + 6 x6 + 5 x7 + 5 x8 >= 12
 c149: 6 x0 + 6 x1 + 6 x2 + 6 x3 + 5 x4 + 6 x5 + 6 x6 + 5 x7 + 6 x8 >= 12
 c150: 5 x0 + 6 x1 + 5 x2 + 6 x3 + 6 x4 + 6 x5 + 6 x6 + 6 x7 + 6 x8 >= 12
 c151: 6 x0 + 6 x1 + 5 x2 + 6 x3 + 6 x4 + 5 x5 + 6 x6 + 6 x7 + 6 x8 >= 12
 c152: 6 x0 + 6 x1 + 6 x2 + 6 x3 + 6 x4 + 6 x5 + 5 x6 + 6 x7 + 5 x8 >= 12
 c153: 5 x0 + 6 x1 + 6 x2 + 6 x3 + 6 x4 + 6 x5 + 5 x6 + 6 x7 + 6 x8 >= 12
 c154: 6 x0 + 6 x1 + 6 x2 + 6 x3 + 6 x4 + 6 x5 + 5 x6 + 5 x7 + 6 x8 >= 12
 c155: 6 x0 + 6 x1 + 6 x2 + 6 x3 + 5 x4 + 5 x5 + 6 x6 + 6 x7 + 6 x8 >= 12
 c156: 14 x0 + 15 x1 + 14 x2 + 14 x3 + 15 x4 + 14 x5 + 14 x6 + 15 x7 + 14 x8
       >= 30
 c157: 14 x0 + 14 x1 + 15 x2 + 14 x3 + 14 x4 + 15 x5 + 14 x6 + 14 x7 + 15 x8
       >= 30
 c158: 15 x0 + 14 x1 + 14 x2 + 15 x3 + 14 x4 + 14 x5 + 15 x6 + 14 x7 + 14 x8
       >= 30
 c159: 14 x0 + 14 x1 + 14 x2 + 14 x3 + 14 x4 + 14 x5 + 15 x6 + 15 x7 + 15 x8
       >= 30
 c160: 15 x0 + 15 x1 + 15 x2 + 14 x3 + 14 x4 + 14 x5 + 14 x6 + 14 x7 + 14 x8
       >= 30
 c161: 14 x0 + 14 x1 + 14 x2 + 15 x3 + 15 x4 + 15 x5 + 14 x6 + 14 x7 + 14 x8
       >= 30
 c162: 63 x0 + 63 x1 + 63 x2 + 63 x3 + 63 x4 + 63 x5 + 63 x6 + 63 x7 + 63 x8
       >= 136
 c163: 31 x0 + 31 x1 + 31 x2 + 31 x3 + 31 x4 + 31 x5 + 31 x6 + 31 x7 + 31 x8
       >= 67
 c164: 67 x0 + 67 x1 + 67 x2 + 67 x3 + 67 x4 + 67 x5 + 67 x6 + 67 x7 + 67 x8
       >= 145
 c165: 5 x0 + 5 x1 + 5 x2 + 5 x3 + 5 x4 + 5 x5 + 5 x6 + 5 x7 + 5 x8 >= 11
 c166: 4 x0 + 4 x1 + 4 x2 + 4 x3 + 4 x4 + 4 x5 + 4 x6 + 4 x7 + 4 x8 >= 9
 c167: 9 x0 + 9 x1 + 9 x2 + 9 x3 + 9 x4 + 9 x5 + 9 x6 + 9 x7 + 9 x8 >= 20
 c168: 17 x0 + 17 x1 + 17 x2 + 17 x3 + 17 x4 + 17 x5 + 17 x6 + 17 x7 + 17 x8
       >= 37
 c169: 12 x0 + 12 x1 + 12 x2 + 12 x3 + 12 x4 + 12 x5 + 12 x6 + 12 x7 + 12 x8
       >= 26
 c170: 38 x0 + 38 x1 + 38 x2 + 38 x3 + 38 x4 + 38 x5 + 38 x6 + 38 x7 + 38 x8
       >= 82
 c171: 35 x0 + 35 x1 + 35 x2 + 35 x3 + 35 x4 + 35 x5 + 35 x6 + 35 x7 + 35 x8
       >= 76
 c172: 68 x0 + 68 x1 + 68 x2 + 68 x3 + 68 x4 + 68 x5 + 68 x6 + 68 x7 + 68 x8
       >= 147
 c173: 36 x0 + 36 x1 + 36 x2 + 36 x3 + 36 x4 + 36 x5 + 36 x6 + 36 x7 + 36 x8
       >= 78
 c174: 8 x0 + 8 x1 + 8 x2 + 8 x3 + 8 x4 + 8 x5 + 8 x6 + 8 x7 + 8 x8 >= 18
 c175: 34 x0 + 34 x1 + 34 x2 + 34 x3 + 34 x4 + 34 x5 + 34 x6 + 34 x7 + 34 x8
       >= 74
 c176: 10 x0 + 10 x1 + 10 x2 + 10 x3 + 10 x4 + 10 x5 + 10 x6 + 10 x7 + 10 x8
       >= 22
 c177: 33 x0 + 33 x1 + 33 x2 + 33 x3 + 33 x4 + 33 x5 + 33 x6 + 33 x7 + 33 x8
       >= 72
Bounds
 0 <= x0 <= 1
 0 <= x1 <= 1
 0 <= x2 <= 1
 0 <= x3 <= 1
 0 <= x4 <= 1
 0 <= x5 <= 1
 0 <= x6 <= 1
 0 <= x7 <= 1
 0 <= x8 <= 1
End
